(set-logic QF_S)
(declare-fun var0 () Int)
(declare-fun var1 () Int)
(declare-fun var2 () String)
(declare-fun var3 () String)
(declare-fun var4 () String)
(declare-fun var5 () String)
(declare-fun var6 () Int)
(declare-fun var7 () Int)
(assert (str.in.re (str.substr (str.substr "-Ooin+" var0 var1) (str.len var2) (str.len var3)) (re.* re.allchar)))
(assert (str.in.re var4 re.allchar))
(assert (>= (str.len var5) (str.len var4)))
(assert (str.contains (str.at (str.substr var3 var6 var7) (str.len ":ME4-!J")) (str.substr (str.replace var5 var4 var5) (str.to.int var2) (str.to.int var4))))
(check-sat)